; benchmark generated from python API
(set-info :status unknown)
(declare-datatypes ((RealState 0)) (((RMk1 (rval1 Real)) (RMk2 (rval2 Real)))))
 (assert
 (forall ((|v9:0| Real) )(exists ((|v8:1_st| RealState) (val!1010 Real) )(forall ((|v7:2| Real) )(exists ((|v6:3_st| RealState) (val!1011 Real) )(forall ((|v5:4| Real) )(exists ((|v4:5_st| RealState) (val!1012 Real) )(forall ((|v3:6| Real) )(exists ((|v2:7_st| RealState) (val!1013 Real) )(forall ((|v1:8| Real) )(exists ((|v0:9_st| RealState) (val!1014 Real) )(let ((?x799 (+ (+ (* (- 11.0) |v5:4|) (* (- 5.0) |v1:8|)) (* (- 4.0) (rval2 |v8:1_st|)))))
 (let ((?x636 (- 1.0)))
 (let ((?x1269 (+ (+ (* 19.0 (rval2 |v8:1_st|)) (* 5.0 (rval2 |v0:9_st|))) (* ?x636 (rval2 |v6:3_st|)))))
 (let ((?x862 (rval2 |v2:7_st|)))
 (let ((?x441 (* 15.0 ?x862)))
 (let (($x1383 (<= (+ (+ (* 12.0 (rval2 |v4:5_st|)) (* 4.0 (rval2 |v8:1_st|))) ?x441) 20.0)))
 (let ((?x1037 (+ (+ (* (- 14.0) (rval2 |v6:3_st|)) (* 2.0 ?x862)) (* (- 20.0) |v5:4|))))
 (let (($x1250 (and (and (<= ?x1037 15.0) $x1383) (or (<= ?x1269 ?x636) (<= ?x799 5.0)))))
 (let ((?x994 (- 13.0)))
 (let (($x597 (<= (+ (+ (* 5.0 (rval2 |v6:3_st|)) (* (- 9.0) |v3:6|)) (* 4.0 |v5:4|)) ?x994)))
 (let (($x815 (<= (+ (+ (* 20.0 (rval2 |v4:5_st|)) (* 15.0 |v5:4|)) (* (- 8.0) |v1:8|)) 0.0)))
 (let ((?x1124 (- 4.0)))
 (let (($x1139 (<= (+ (+ (* 19.0 |v3:6|) (* 20.0 |v3:6|)) (* 8.0 (rval2 |v8:1_st|))) 19.0)))
 (let (($x759 (or $x1139 (<= (+ (+ (* 6.0 ?x862) (* 5.0 |v7:2|)) (* 3.0 |v7:2|)) ?x1124))))
 (let ((?x733 (- 12.0)))
 (let (($x800 (<= (+ (+ (* 18.0 |v9:0|) (* (- 9.0) ?x862)) (* 15.0 |v5:4|)) ?x733)))
 (let (($x598 (<= (+ (+ (* 19.0 (rval2 |v0:9_st|)) (* 3.0 (rval2 |v0:9_st|))) (rval2 |v8:1_st|)) 11.0)))
 (let ((?x750 (- 20.0)))
 (let ((?x1065 (+ (+ (* (- 7.0) |v5:4|) (* 3.0 (rval2 |v4:5_st|))) (* (- 16.0) (rval2 |v4:5_st|)))))
 (let (($x984 (<= (+ (+ (* (- 14.0) |v1:8|) (rval2 |v6:3_st|)) (* 8.0 ?x862)) 17.0)))
 (let (($x721 (<= (+ (+ (* (- 14.0) |v1:8|) (* ?x636 (rval2 |v4:5_st|))) (* 15.0 |v9:0|)) 3.0)))
 (let (($x189 (and (or (and (and $x721 $x984) (or (<= ?x1065 ?x750) $x598)) $x800) (or (or $x759 (or $x815 $x597)) $x1250))))
 (let ((?x728 (- 7.0)))
 (let (($x1290 (<= (+ (+ (* 16.0 |v5:4|) (* (- 18.0) |v1:8|)) (* 17.0 (rval2 |v4:5_st|))) ?x728)))
 (let ((?x988 (+ (+ (* 6.0 (rval2 |v4:5_st|)) (* (- 11.0) (rval2 |v0:9_st|))) (* (- 16.0) ?x862))))
 (let (($x1224 (<= (+ (+ (* (- 2.0) |v1:8|) (* ?x636 ?x862)) (* (- 14.0) |v1:8|)) 14.0)))
 (let ((?x1402 (+ (+ (* ?x636 (rval2 |v8:1_st|)) (* (- 2.0) |v3:6|)) (* 16.0 (rval2 |v8:1_st|)))))
 (let ((?x708 (- 14.0)))
 (let ((?x23 (- 16.0)))
 (let (($x1271 (<= (+ (+ (* 12.0 ?x862) (* 0.0 |v7:2|)) (* 17.0 (rval2 |v6:3_st|))) ?x23)))
 (let (($x711 (and $x1271 (<= (+ (+ |v3:6| (* 9.0 |v7:2|)) (* ?x994 |v3:6|)) (- 3.0)))))
 (let (($x1225 (or $x711 (<= (+ (+ (* (- 18.0) |v3:6|) (* 0.0 (rval2 |v0:9_st|))) |v1:8|) ?x708))))
 (let (($x1010 (or $x1225 (and (and (<= ?x1402 8.0) $x1224) (and (<= ?x988 17.0) $x1290)))))
 (let ((?x865 (+ (+ (* (- 10.0) |v1:8|) (* (- 8.0) (rval2 |v8:1_st|))) (* 20.0 |v1:8|))))
 (let ((?x578 (- 19.0)))
 (let (($x87 (<= (+ (+ (* ?x708 |v9:0|) (* 17.0 (rval2 |v4:5_st|))) (* (- 8.0) |v9:0|)) ?x578)))
 (let (($x1252 (<= (+ (+ (* 5.0 |v5:4|) (rval2 |v8:1_st|)) (* ?x733 (rval2 |v4:5_st|))) 20.0)))
 (let (($x276 (<= (+ (+ (* ?x750 |v7:2|) (* (- 8.0) |v9:0|)) (* (- 9.0) |v7:2|)) ?x636)))
 (let ((?x1315 (+ (+ (* 17.0 (rval2 |v8:1_st|)) (* ?x578 |v5:4|)) (* 9.0 (rval2 |v6:3_st|)))))
 (let ((?x295 (- 9.0)))
 (let (($x535 (<= (+ (+ (* ?x1124 |v7:2|) (* 0.0 ?x862)) (* (- 3.0) (rval2 |v4:5_st|))) ?x295)))
 (let (($x262 (<= (+ (+ (* ?x750 |v3:6|) (* ?x578 |v5:4|)) (* 18.0 (rval2 |v8:1_st|))) 11.0)))
 (let (($x1403 (<= (+ (+ (* 15.0 (rval2 |v4:5_st|)) (* 4.0 |v7:2|)) (* ?x728 |v9:0|)) 0.0)))
 (let (($x488 (or (or (and $x1403 $x262) (or $x535 (<= ?x1315 13.0))) (and (and $x276 $x1252) (or $x87 (<= ?x865 13.0))))))
 (let (($x945 (not (= |v0:9_st| (RMk1 val!1014)))))
 (let (($x729 (not (= |v2:7_st| (RMk1 val!1013)))))
 (let (($x655 (not (= |v4:5_st| (RMk1 val!1012)))))
 (let (($x501 (not (= |v6:3_st| (RMk1 val!1011)))))
 (let (($x699 (not (= |v8:1_st| (RMk1 val!1010)))))
 (and $x699 $x501 $x655 $x729 $x945 (and (and $x488 $x1010) $x189))))))))))))))))))))))))))))))))))))))))))))))))))))
 )
 )
 )
 )
 )
 )
 )
 )
 )
 )
(check-sat)
